
Gurobi 7.5.2 (win64, Python) logging started 11/19/17 22:50:53

Academic license - for non-commercial use only
Optimize a model with 2 rows, 3 columns and 5 nonzeros
Variable types: 0 continuous, 3 integer (3 binary)
Coefficient statistics:
  Matrix range     [1e+00, 3e+00]
  Objective range  [1e+00, 2e+00]
  Bounds range     [1e+00, 1e+00]
  RHS range        [1e+00, 4e+00]
Found heuristic solution: objective 2.0000000
Presolve removed 2 rows and 3 columns
Presolve time: 0.00s
Presolve: All rows and columns removed

Explored 0 nodes (0 simplex iterations) in 0.02 seconds
Thread count was 1 (of 4 available processors)

Solution count 2: 3 2 

Optimal solution found (tolerance 1.00e-04)
Best objective 3.000000000000e+00, best bound 3.000000000000e+00, gap 0.0000%
Optimize a model with 2 rows, 3 columns and 5 nonzeros
Variable types: 0 continuous, 3 integer (3 binary)
Coefficient statistics:
  Matrix range     [1e+00, 3e+00]
  Objective range  [1e+00, 2e+00]
  Bounds range     [1e+00, 1e+00]
  RHS range        [1e+00, 4e+00]
Found heuristic solution: objective 2.0000000
Presolve removed 2 rows and 3 columns
Presolve time: 0.00s
Presolve: All rows and columns removed

Explored 0 nodes (0 simplex iterations) in 0.02 seconds
Thread count was 1 (of 4 available processors)

Solution count 2: 3 2 

Optimal solution found (tolerance 1.00e-04)
Best objective 3.000000000000e+00, best bound 3.000000000000e+00, gap 0.0000%

Gurobi 7.5.2 (win64, Python) logging started 11/20/17 14:11:57

Academic license - for non-commercial use only
Optimize a model with 1 rows, 4 columns and 3 nonzeros
Model has 1 SOS constraint
Variable types: 4 continuous, 0 integer (0 binary)
Coefficient statistics:
  Matrix range     [9e+00, 9e+00]
  Objective range  [4e+01, 4e+01]
  Bounds range     [0e+00, 0e+00]
  RHS range        [4e+00, 4e+00]
Found heuristic solution: objective -0.0000000
Presolve removed 1 rows and 4 columns
Presolve time: 0.14s
Presolve: All rows and columns removed

Explored 0 nodes (0 simplex iterations) in 0.33 seconds
Thread count was 1 (of 4 available processors)

Solution count 2: 15.9444 -0 

Optimal solution found (tolerance 1.00e-04)
Best objective 1.594444444444e+01, best bound 1.594444444444e+01, gap 0.0000%
Optimize a model with 1 rows, 4 columns and 3 nonzeros
Model has 1 SOS constraint
Variable types: 4 continuous, 0 integer (0 binary)
Coefficient statistics:
  Matrix range     [2e+00, 4e+00]
  Objective range  [1e+01, 2e+01]
  Bounds range     [0e+00, 0e+00]
  RHS range        [4e+00, 4e+00]
Found heuristic solution: objective -0.0000000
Presolve removed 1 rows and 4 columns
Presolve time: 0.00s
Presolve: All rows and columns removed

Explored 0 nodes (0 simplex iterations) in 0.02 seconds
Thread count was 1 (of 4 available processors)

Solution count 2: 22.1667 -0 

Optimal solution found (tolerance 1.00e-04)
Best objective 2.216666666667e+01, best bound 2.216666666667e+01, gap 0.0000%
Optimize a model with 4 rows, 4 columns and 6 nonzeros
Model has 1 SOS constraint
Variable types: 4 continuous, 0 integer (0 binary)
Coefficient statistics:
  Matrix range     [1e+00, 4e+00]
  Objective range  [1e+01, 2e+01]
  Bounds range     [0e+00, 0e+00]
  RHS range        [1e+00, 4e+00]
Found heuristic solution: objective -0.0000000
Presolve removed 1 rows and 0 columns
Presolve time: 0.13s
Presolved: 3 rows, 4 columns, 7 nonzeros
Variable types: 3 continuous, 1 integer (1 binary)

Root relaxation: objective 2.200000e+01, 1 iterations, 0.12 seconds

    Nodes    |    Current Node    |     Objective Bounds      |     Work
 Expl Unexpl |  Obj  Depth IntInf | Incumbent    BestBd   Gap | It/Node Time

*    0     0               0      22.0000000   22.00000  0.00%     -    0s

Explored 0 nodes (1 simplex iterations) in 0.50 seconds
Thread count was 4 (of 4 available processors)

Solution count 2: 22 -0 

Optimal solution found (tolerance 1.00e-04)
Best objective 2.200000000000e+01, best bound 2.200000000000e+01, gap 0.0000%
Optimize a model with 5 rows, 4 columns and 9 nonzeros
Model has 1 SOS constraint
Variable types: 4 continuous, 0 integer (0 binary)
Coefficient statistics:
  Matrix range     [1e+00, 4e+00]
  Objective range  [1e+01, 2e+01]
  Bounds range     [0e+00, 0e+00]
  RHS range        [1e+00, 4e+00]
Found heuristic solution: objective -0.0000000
Presolve removed 5 rows and 4 columns
Presolve time: 0.00s
Presolve: All rows and columns removed

Explored 0 nodes (0 simplex iterations) in 0.07 seconds
Thread count was 1 (of 4 available processors)

Solution count 2: 19 -0 

Optimal solution found (tolerance 1.00e-04)
Best objective 1.900000000000e+01, best bound 1.900000000000e+01, gap 0.0000%
Optimize a model with 8 rows, 4 columns and 12 nonzeros
Model has 1 SOS constraint
Variable types: 4 continuous, 0 integer (0 binary)
Coefficient statistics:
  Matrix range     [1e+00, 4e+00]
  Objective range  [1e+01, 2e+01]
  Bounds range     [0e+00, 0e+00]
  RHS range        [1e+00, 4e+00]
Found heuristic solution: objective -0.0000000
Presolve removed 8 rows and 4 columns
Presolve time: 0.00s
Presolve: All rows and columns removed

Explored 0 nodes (0 simplex iterations) in 0.02 seconds
Thread count was 1 (of 4 available processors)

Solution count 2: 19 -0 

Optimal solution found (tolerance 1.00e-04)
Best objective 1.900000000000e+01, best bound 1.900000000000e+01, gap 0.0000%
Optimize a model with 8 rows, 4 columns and 12 nonzeros
Model has 1 SOS constraint
Variable types: 4 continuous, 0 integer (0 binary)
Coefficient statistics:
  Matrix range     [1e+00, 4e+00]
  Objective range  [1e+01, 2e+01]
  Bounds range     [0e+00, 0e+00]
  RHS range        [1e+00, 4e+00]
Found heuristic solution: objective -0.0000000
Presolve removed 8 rows and 4 columns
Presolve time: 0.00s
Presolve: All rows and columns removed

Explored 0 nodes (0 simplex iterations) in 0.02 seconds
Thread count was 1 (of 4 available processors)

Solution count 2: 19 -0 

Optimal solution found (tolerance 1.00e-04)
Best objective 1.900000000000e+01, best bound 1.900000000000e+01, gap 0.0000%
Optimize a model with 5 rows, 4 columns and 9 nonzeros
Model has 1 SOS constraint
Variable types: 4 continuous, 0 integer (0 binary)
Coefficient statistics:
  Matrix range     [1e+00, 4e+00]
  Objective range  [1e+01, 2e+01]
  Bounds range     [0e+00, 0e+00]
  RHS range        [1e+00, 4e+00]
Found heuristic solution: objective -0.0000000
Presolve removed 5 rows and 4 columns
Presolve time: 0.00s
Presolve: All rows and columns removed

Explored 0 nodes (0 simplex iterations) in 0.02 seconds
Thread count was 1 (of 4 available processors)

Solution count 2: 19 -0 

Optimal solution found (tolerance 1.00e-04)
Best objective 1.900000000000e+01, best bound 1.900000000000e+01, gap 0.0000%
Optimize a model with 5 rows, 4 columns and 9 nonzeros
Model has 1 SOS constraint
Variable types: 4 continuous, 0 integer (0 binary)
Coefficient statistics:
  Matrix range     [1e+00, 4e+00]
  Objective range  [1e+01, 2e+01]
  Bounds range     [0e+00, 0e+00]
  RHS range        [1e+00, 4e+00]
Presolve removed 5 rows and 4 columns
Presolve time: 0.00s
Presolve: All rows and columns removed

Explored 0 nodes (0 simplex iterations) in 0.01 seconds
Thread count was 1 (of 4 available processors)

Solution count 1: 19 

Optimal solution found (tolerance 1.00e-04)
Best objective 1.900000000000e+01, best bound 1.900000000000e+01, gap 0.0000%
Optimize a model with 5 rows, 3 columns and 9 nonzeros
Model has 1 SOS constraint
Variable types: 3 continuous, 0 integer (0 binary)
Coefficient statistics:
  Matrix range     [1e+00, 4e+00]
  Objective range  [1e+01, 2e+01]
  Bounds range     [0e+00, 0e+00]
  RHS range        [1e+00, 4e+00]
Presolve removed 5 rows and 3 columns
Presolve time: 0.00s
Presolve: All rows and columns removed

Explored 0 nodes (0 simplex iterations) in 0.01 seconds
Thread count was 1 (of 4 available processors)

Solution count 1: 19 

Optimal solution found (tolerance 1.00e-04)
Best objective 1.900000000000e+01, best bound 1.900000000000e+01, gap 0.0000%
Optimize a model with 5 rows, 3 columns and 9 nonzeros
Model has 1 SOS constraint
Variable types: 3 continuous, 0 integer (0 binary)
Coefficient statistics:
  Matrix range     [1e+00, 4e+00]
  Objective range  [1e+01, 2e+01]
  Bounds range     [0e+00, 0e+00]
  RHS range        [1e+00, 4e+00]
Presolve removed 5 rows and 3 columns
Presolve time: 0.00s
Presolve: All rows and columns removed

Explored 0 nodes (0 simplex iterations) in 0.01 seconds
Thread count was 1 (of 4 available processors)

Solution count 1: 19 

Optimal solution found (tolerance 1.00e-04)
Best objective 1.900000000000e+01, best bound 1.900000000000e+01, gap 0.0000%
Optimize a model with 5 rows, 3 columns and 9 nonzeros
Model has 1 SOS constraint
Variable types: 3 continuous, 0 integer (0 binary)
Coefficient statistics:
  Matrix range     [1e+00, 4e+00]
  Objective range  [1e+01, 2e+01]
  Bounds range     [0e+00, 0e+00]
  RHS range        [1e+00, 3e+00]
Presolve removed 5 rows and 3 columns
Presolve time: 0.00s
Presolve: All rows and columns removed

Explored 0 nodes (0 simplex iterations) in 0.01 seconds
Thread count was 1 (of 4 available processors)

Solution count 1: 15.5 

Optimal solution found (tolerance 1.00e-04)
Best objective 1.550000000000e+01, best bound 1.550000000000e+01, gap 0.0000%
Optimize a model with 5 rows, 3 columns and 9 nonzeros
Model has 1 SOS constraint
Variable types: 3 continuous, 0 integer (0 binary)
Coefficient statistics:
  Matrix range     [1e+00, 4e+00]
  Objective range  [1e+01, 2e+01]
  Bounds range     [0e+00, 0e+00]
  RHS range        [1e+00, 3e+00]
Presolve removed 5 rows and 3 columns
Presolve time: 0.00s
Presolve: All rows and columns removed

Explored 0 nodes (0 simplex iterations) in 0.01 seconds
Thread count was 1 (of 4 available processors)

Solution count 1: 15.5 

Optimal solution found (tolerance 1.00e-04)
Best objective 1.550000000000e+01, best bound 1.550000000000e+01, gap 0.0000%
Optimize a model with 5 rows, 3 columns and 9 nonzeros
Model has 1 SOS constraint
Variable types: 3 continuous, 0 integer (0 binary)
Coefficient statistics:
  Matrix range     [1e+00, 4e+00]
  Objective range  [1e+01, 2e+01]
  Bounds range     [0e+00, 0e+00]
  RHS range        [1e+00, 3e+00]
Presolve removed 5 rows and 3 columns
Presolve time: 0.00s
Presolve: All rows and columns removed

Explored 0 nodes (0 simplex iterations) in 0.01 seconds
Thread count was 1 (of 4 available processors)

Solution count 1: 15.5 

Optimal solution found (tolerance 1.00e-04)
Best objective 1.550000000000e+01, best bound 1.550000000000e+01, gap 0.0000%
Optimize a model with 5 rows, 3 columns and 9 nonzeros
Model has 1 SOS constraint
Variable types: 3 continuous, 0 integer (0 binary)
Coefficient statistics:
  Matrix range     [1e+00, 4e+00]
  Objective range  [1e+01, 2e+01]
  Bounds range     [0e+00, 0e+00]
  RHS range        [1e+00, 3e+00]
Presolve removed 5 rows and 3 columns
Presolve time: 0.00s
Presolve: All rows and columns removed

Explored 0 nodes (0 simplex iterations) in 0.01 seconds
Thread count was 1 (of 4 available processors)

Solution count 1: 15.5 

Optimal solution found (tolerance 1.00e-04)
Best objective 1.550000000000e+01, best bound 1.550000000000e+01, gap 0.0000%
Optimize a model with 5 rows, 3 columns and 9 nonzeros
Model has 1 SOS constraint
Variable types: 3 continuous, 0 integer (0 binary)
Coefficient statistics:
  Matrix range     [1e+00, 4e+00]
  Objective range  [1e+01, 2e+01]
  Bounds range     [0e+00, 0e+00]
  RHS range        [1e+00, 3e+00]
Presolve removed 5 rows and 3 columns
Presolve time: 0.00s
Presolve: All rows and columns removed

Explored 0 nodes (0 simplex iterations) in 0.02 seconds
Thread count was 1 (of 4 available processors)

Solution count 1: 15.5 

Optimal solution found (tolerance 1.00e-04)
Best objective 1.550000000000e+01, best bound 1.550000000000e+01, gap 0.0000%
Optimize a model with 5 rows, 3 columns and 9 nonzeros
Model has 1 SOS constraint
Variable types: 3 continuous, 0 integer (0 binary)
Coefficient statistics:
  Matrix range     [1e+00, 4e+00]
  Objective range  [1e+01, 2e+01]
  Bounds range     [0e+00, 0e+00]
  RHS range        [1e+00, 3e+00]
Presolve removed 5 rows and 3 columns
Presolve time: 0.00s
Presolve: All rows and columns removed

Explored 0 nodes (0 simplex iterations) in 0.02 seconds
Thread count was 1 (of 4 available processors)

Solution count 1: 15.5 

Optimal solution found (tolerance 1.00e-04)
Best objective 1.550000000000e+01, best bound 1.550000000000e+01, gap 0.0000%
Optimize a model with 5 rows, 3 columns and 9 nonzeros
Model has 1 SOS constraint
Variable types: 3 continuous, 0 integer (0 binary)
Coefficient statistics:
  Matrix range     [1e+00, 4e+00]
  Objective range  [1e+01, 2e+01]
  Bounds range     [0e+00, 0e+00]
  RHS range        [1e+00, 3e+00]
Presolve removed 5 rows and 3 columns
Presolve time: 0.00s
Presolve: All rows and columns removed

Explored 0 nodes (0 simplex iterations) in 0.01 seconds
Thread count was 1 (of 4 available processors)

Solution count 1: 15.5 

Optimal solution found (tolerance 1.00e-04)
Best objective 1.550000000000e+01, best bound 1.550000000000e+01, gap 0.0000%
Optimize a model with 5 rows, 3 columns and 9 nonzeros
Model has 1 SOS constraint
Variable types: 3 continuous, 0 integer (0 binary)
Coefficient statistics:
  Matrix range     [1e+00, 4e+00]
  Objective range  [1e+01, 2e+01]
  Bounds range     [0e+00, 0e+00]
  RHS range        [1e+00, 3e+00]
Presolve removed 5 rows and 3 columns
Presolve time: 0.00s
Presolve: All rows and columns removed

Explored 0 nodes (0 simplex iterations) in 0.01 seconds
Thread count was 1 (of 4 available processors)

Solution count 1: 15.5 

Optimal solution found (tolerance 1.00e-04)
Best objective 1.550000000000e+01, best bound 1.550000000000e+01, gap 0.0000%
Optimize a model with 5 rows, 3 columns and 9 nonzeros
Model has 1 SOS constraint
Variable types: 3 continuous, 0 integer (0 binary)
Coefficient statistics:
  Matrix range     [1e+00, 4e+00]
  Objective range  [1e+01, 2e+01]
  Bounds range     [0e+00, 0e+00]
  RHS range        [1e+00, 3e+00]
Presolve removed 5 rows and 3 columns
Presolve time: 0.00s
Presolve: All rows and columns removed

Explored 0 nodes (0 simplex iterations) in 0.01 seconds
Thread count was 1 (of 4 available processors)

Solution count 1: 15.5 

Optimal solution found (tolerance 1.00e-04)
Best objective 1.550000000000e+01, best bound 1.550000000000e+01, gap 0.0000%
Optimize a model with 5 rows, 3 columns and 9 nonzeros
Model has 1 SOS constraint
Variable types: 3 continuous, 0 integer (0 binary)
Coefficient statistics:
  Matrix range     [1e+00, 4e+00]
  Objective range  [1e+01, 2e+01]
  Bounds range     [0e+00, 0e+00]
  RHS range        [1e+00, 3e+00]
Presolve removed 5 rows and 3 columns
Presolve time: 0.00s
Presolve: All rows and columns removed

Explored 0 nodes (0 simplex iterations) in 0.01 seconds
Thread count was 1 (of 4 available processors)

Solution count 1: 15.5 

Optimal solution found (tolerance 1.00e-04)
Best objective 1.550000000000e+01, best bound 1.550000000000e+01, gap 0.0000%
Optimize a model with 5 rows, 3 columns and 9 nonzeros
Model has 1 SOS constraint
Variable types: 3 continuous, 0 integer (0 binary)
Coefficient statistics:
  Matrix range     [1e+00, 4e+00]
  Objective range  [1e+01, 2e+01]
  Bounds range     [0e+00, 0e+00]
  RHS range        [1e+00, 3e+00]
Presolve removed 5 rows and 3 columns
Presolve time: 0.00s
Presolve: All rows and columns removed

Explored 0 nodes (0 simplex iterations) in 0.02 seconds
Thread count was 1 (of 4 available processors)

Solution count 1: 15.5 

Optimal solution found (tolerance 1.00e-04)
Best objective 1.550000000000e+01, best bound 1.550000000000e+01, gap 0.0000%
Optimize a model with 5 rows, 3 columns and 9 nonzeros
Model has 1 SOS constraint
Variable types: 3 continuous, 0 integer (0 binary)
Coefficient statistics:
  Matrix range     [1e+00, 4e+00]
  Objective range  [1e+01, 2e+01]
  Bounds range     [0e+00, 0e+00]
  RHS range        [1e+00, 3e+00]
Presolve removed 5 rows and 3 columns
Presolve time: 0.00s
Presolve: All rows and columns removed

Explored 0 nodes (0 simplex iterations) in 0.01 seconds
Thread count was 1 (of 4 available processors)

Solution count 1: 15.5 

Optimal solution found (tolerance 1.00e-04)
Best objective 1.550000000000e+01, best bound 1.550000000000e+01, gap 0.0000%
Optimize a model with 5 rows, 3 columns and 9 nonzeros
Model has 1 SOS constraint
Variable types: 3 continuous, 0 integer (0 binary)
Coefficient statistics:
  Matrix range     [1e+00, 4e+00]
  Objective range  [1e+01, 2e+01]
  Bounds range     [0e+00, 0e+00]
  RHS range        [1e+00, 3e+00]
Presolve removed 5 rows and 3 columns
Presolve time: 0.03s
Presolve: All rows and columns removed

Explored 0 nodes (0 simplex iterations) in 0.06 seconds
Thread count was 1 (of 4 available processors)

Solution count 1: 19 

Optimal solution found (tolerance 1.00e-04)
Best objective 1.900000000000e+01, best bound 1.900000000000e+01, gap 0.0000%
Optimize a model with 6 rows, 4 columns and 11 nonzeros
Model has 1 SOS constraint
Variable types: 4 continuous, 0 integer (0 binary)
Coefficient statistics:
  Matrix range     [1e+00, 4e+00]
  Objective range  [1e+01, 2e+01]
  Bounds range     [0e+00, 0e+00]
  RHS range        [1e+00, 3e+00]
Presolve removed 6 rows and 4 columns
Presolve time: 0.00s
Presolve: All rows and columns removed

Explored 0 nodes (0 simplex iterations) in 0.01 seconds
Thread count was 1 (of 4 available processors)

Solution count 1: 19 

Optimal solution found (tolerance 1.00e-04)
Best objective 1.900000000000e+01, best bound 1.900000000000e+01, gap 0.0000%

Gurobi 7.5.2 (win64, Python) logging started 11/20/17 16:14:41

Academic license - for non-commercial use only
Optimize a model with 6 rows, 4 columns and 11 nonzeros
Model has 1 SOS constraint
Variable types: 4 continuous, 0 integer (0 binary)
Coefficient statistics:
  Matrix range     [1e+00, 4e+00]
  Objective range  [1e+01, 2e+01]
  Bounds range     [0e+00, 0e+00]
  RHS range        [1e+00, 3e+00]
Presolve removed 6 rows and 4 columns
Presolve time: 0.07s
Presolve: All rows and columns removed

Explored 0 nodes (0 simplex iterations) in 0.16 seconds
Thread count was 1 (of 4 available processors)

Solution count 1: 19 

Optimal solution found (tolerance 1.00e-04)
Best objective 1.900000000000e+01, best bound 1.900000000000e+01, gap 0.0000%
Optimize a model with 6 rows, 4 columns and 11 nonzeros
Model has 1 SOS constraint
Variable types: 4 continuous, 0 integer (0 binary)
Coefficient statistics:
  Matrix range     [1e+00, 4e+00]
  Objective range  [1e+01, 2e+01]
  Bounds range     [0e+00, 0e+00]
  RHS range        [1e+00, 3e+00]
Presolve removed 6 rows and 4 columns
Presolve time: 0.00s
Presolve: All rows and columns removed

Explored 0 nodes (0 simplex iterations) in 0.01 seconds
Thread count was 1 (of 4 available processors)

Solution count 1: 15.5 

Optimal solution found (tolerance 1.00e-04)
Best objective 1.550000000000e+01, best bound 1.550000000000e+01, gap 0.0000%

Gurobi 7.5.2 (win64, Python) logging started 11/21/17 12:21:46

Academic license - for non-commercial use only

Gurobi 7.5.2 (win64, Python) logging started 11/21/17 15:05:47

Academic license - for non-commercial use only
